NAME: random-83-5433
TYPE: TSP
COMMENT: size=83 seed=5433
DIMENSION: 168
EDGE_WEIGHT_TYPE: EUC_2D
NODE_COORD_SECTION
+0 431 859
-0 431 859
+1 272 493
-1 567 38
+2 229 531
-2 819 258
+3 478 197
-3 741 380
+4 629 130
-4 19 135
+5 803 220
-5 244 396
+6 221 275
-6 14 230
+7 108 632
-7 586 431
+8 721 332
-8 377 488
+9 168 994
-9 259 845
+10 437 290
-10 47 964
+11 272 667
-11 867 921
+12 795 544
-12 325 284
+13 287 781
-13 947 282
+14 671 96
-14 957 136
+15 268 951
-15 882 141
+16 913 448
-16 126 340
+17 321 189
-17 194 484
+18 220 921
-18 479 81
+19 815 104
-19 386 629
+20 236 95
-20 715 153
+21 962 695
-21 112 105
+22 73 965
-22 302 651
+23 836 70
-23 99 466
+24 42 484
-24 93 720
+25 340 727
-25 823 228
+26 76 79
-26 368 88
+27 61 356
-27 767 968
+28 174 942
-28 37 656
+29 890 482
-29 843 320
+30 962 504
-30 850 714
+31 573 312
-31 464 449
+32 244 471
-32 993 371
+33 554 369
-33 999 911
+34 330 49
-34 613 815
+35 188 893
-35 967 493
+36 454 730
-36 930 364
+37 312 460
-37 789 447
+38 587 132
-38 684 113
+39 1 994
-39 946 697
+40 397 662
-40 624 122
+41 416 696
-41 161 615
+42 369 59
-42 194 885
+43 679 547
-43 710 822
+44 172 949
-44 421 20
+45 699 282
-45 858 920
+46 571 362
-46 44 319
+47 133 841
-47 32 188
+48 388 868
-48 43 605
+49 490 24
-49 265 256
+50 931 430
-50 333 773
+51 908 458
-51 510 571
+52 710 798
-52 398 837
+53 895 222
-53 512 827
+54 414 55
-54 750 984
+55 44 600
-55 336 970
+56 339 655
-56 773 188
+57 400 273
-57 88 235
+58 817 940
-58 353 12
+59 241 814
-59 964 965
+60 957 332
-60 835 944
+61 978 963
-61 792 166
+62 842 167
-62 511 666
+63 817 404
-63 985 574
+64 470 564
-64 518 94
+65 830 781
-65 986 672
+66 207 819
-66 215 60
+67 441 521
-67 330 569
+68 254 934
-68 492 180
+69 244 906
-69 285 746
+70 317 929
-70 708 474
+71 957 882
-71 457 684
+72 219 547
-72 997 25
+73 0 280
-73 508 687
+74 485 570
-74 758 109
+75 995 762
-75 651 151
+76 218 502
-76 459 448
+77 34 48
-77 594 463
+78 358 890
-78 297 285
+79 862 797
-79 682 431
+80 181 946
-80 531 651
+81 215 409
-81 953 136
+82 765 624
-82 355 892
+83 396 363
-83 519 371
PRECEDENCE_SECTION
+0 -0
+1 -1
+2 -2
+3 -3
+4 -4
+5 -5
+6 -6
+7 -7
+8 -8
+9 -9
+10 -10
+11 -11
+12 -12
+13 -13
+14 -14
+15 -15
+16 -16
+17 -17
+18 -18
+19 -19
+20 -20
+21 -21
+22 -22
+23 -23
+24 -24
+25 -25
+26 -26
+27 -27
+28 -28
+29 -29
+30 -30
+31 -31
+32 -32
+33 -33
+34 -34
+35 -35
+36 -36
+37 -37
+38 -38
+39 -39
+40 -40
+41 -41
+42 -42
+43 -43
+44 -44
+45 -45
+46 -46
+47 -47
+48 -48
+49 -49
+50 -50
+51 -51
+52 -52
+53 -53
+54 -54
+55 -55
+56 -56
+57 -57
+58 -58
+59 -59
+60 -60
+61 -61
+62 -62
+63 -63
+64 -64
+65 -65
+66 -66
+67 -67
+68 -68
+69 -69
+70 -70
+71 -71
+72 -72
+73 -73
+74 -74
+75 -75
+76 -76
+77 -77
+78 -78
+79 -79
+80 -80
+81 -81
+82 -82
+83 -83
EOF
